20
10000
1 25 200
2 80 500
3 153 700
4 54 300
5 78 100
6 80 500
7 153 900
8 54 300
9 78 100
10 80 500
11 25 200
12 80 500
13 153 700
14 54 300
15 78 100
16 80 500
17 153 700
18 54 300
19 78 100
20 80 5000

